10441 6398 0 499 498 496 494 493 491 490 488 487 486 480 479 477 475 474 473 472 471 462 459 458 456 454 453 452 451 449 448 447 446 445 443 442 440 439 437 435 434 433 431 430 429 428 427 425 423 422 421 420 418 417 416 413 412 411 408 407 406 405 401 399 397 396 392 390 389 388 387 386 385 384 383 381 380 377 375 373 372 371 370 369 368 365 364 363 362 361 358 357 356 353 352 348 347 346 345 341 339 338 337 335 334 333 331 330 329 326 325 322 321 320 319 318 317 316 315 313 311 310 309 308 306 305 304 302 301 300 298 297 296 295 294 292 291 290 288 287 286 285 284 282 281 280 278 277 276 274 273 269 267 264 263 262 261 260 259 257 256 255 254 252 251 250 247 246 245 244 242 241 240 239 237 236 235 234 233 232 230 229 228 227 226 222 221 218 217 212 210 208 205 204 203 202 200 199 198 197 195 194 190 189 188 187 185 184 179 178 177 174 173 171 170 162 160 159 157 156 155 153 151 150 149 148 147 144 142 141 140 139 138 135 133 132 131 129 128 125 123 122 117 116 113 112 111 109 108 107 106 104 103 101 99 98 96 95 94 93 91 89 88 87 86 85 84 83 82 80 78 75 74 72 71 67 66 64 63 62 61 59 57 56 53 52 51 50 46 45 41 40 38 37 33 32 31 30 29 28 25 23 22 19 18 17 15 14 12 11 10 9 7 6 4 3 2 